unsat
(error "line 938 column 17: model is not available")
(error "line 939 column 17: model is not available")
(error "line 940 column 18: model is not available")
(error "line 941 column 19: model is not available")
(error "line 942 column 19: model is not available")
(error "line 943 column 18: model is not available")
(error "line 944 column 18: model is not available")
(error "line 945 column 18: model is not available")
(error "line 946 column 18: model is not available")
(error "line 947 column 18: model is not available")
(error "line 948 column 18: model is not available")
(error "line 949 column 18: model is not available")
(error "line 950 column 18: model is not available")
(error "line 951 column 18: model is not available")
(error "line 952 column 17: model is not available")
(error "line 953 column 18: model is not available")
(error "line 954 column 18: model is not available")
(error "line 955 column 18: model is not available")
(error "line 956 column 18: model is not available")
(error "line 957 column 18: model is not available")
(error "line 958 column 18: model is not available")
(error "line 959 column 18: model is not available")
(error "line 960 column 18: model is not available")
(error "line 961 column 18: model is not available")
(error "line 962 column 18: model is not available")
(error "line 963 column 17: model is not available")
(error "line 964 column 18: model is not available")
(error "line 965 column 18: model is not available")
(error "line 966 column 18: model is not available")
(error "line 967 column 18: model is not available")
(error "line 968 column 18: model is not available")
(error "line 969 column 18: model is not available")
(error "line 970 column 18: model is not available")
(error "line 971 column 18: model is not available")
(error "line 972 column 18: model is not available")
(error "line 973 column 18: model is not available")
(error "line 974 column 17: model is not available")
(error "line 975 column 18: model is not available")
(error "line 976 column 18: model is not available")
(error "line 977 column 18: model is not available")
(error "line 978 column 18: model is not available")
(error "line 979 column 18: model is not available")
(error "line 980 column 18: model is not available")
(error "line 981 column 18: model is not available")
(error "line 982 column 18: model is not available")
(error "line 983 column 18: model is not available")
(error "line 984 column 18: model is not available")
(error "line 985 column 17: model is not available")
(error "line 986 column 18: model is not available")
(error "line 987 column 18: model is not available")
(error "line 988 column 18: model is not available")
(error "line 989 column 18: model is not available")
(error "line 990 column 18: model is not available")
(error "line 991 column 18: model is not available")
(error "line 992 column 18: model is not available")
(error "line 993 column 18: model is not available")
(error "line 994 column 18: model is not available")
(error "line 995 column 18: model is not available")
(error "line 996 column 17: model is not available")
(error "line 997 column 18: model is not available")
(error "line 998 column 18: model is not available")
(error "line 999 column 18: model is not available")
(error "line 1000 column 18: model is not available")
(error "line 1001 column 18: model is not available")
(error "line 1002 column 18: model is not available")
(error "line 1003 column 18: model is not available")
(error "line 1004 column 18: model is not available")
(error "line 1005 column 18: model is not available")
(error "line 1006 column 18: model is not available")
(error "line 1007 column 17: model is not available")
(error "line 1008 column 18: model is not available")
(error "line 1009 column 18: model is not available")
(error "line 1010 column 18: model is not available")
(error "line 1011 column 18: model is not available")
(error "line 1012 column 18: model is not available")
(error "line 1013 column 18: model is not available")
(error "line 1014 column 18: model is not available")
(error "line 1015 column 18: model is not available")
(error "line 1016 column 18: model is not available")
(error "line 1017 column 18: model is not available")
(error "line 1018 column 17: model is not available")
(error "line 1019 column 18: model is not available")
(error "line 1020 column 18: model is not available")
(error "line 1021 column 18: model is not available")
(error "line 1022 column 18: model is not available")
(error "line 1023 column 18: model is not available")
(error "line 1024 column 18: model is not available")
(error "line 1025 column 18: model is not available")
(error "line 1026 column 18: model is not available")
(error "line 1027 column 18: model is not available")
(error "line 1028 column 18: model is not available")
(error "line 1029 column 17: model is not available")
(error "line 1030 column 18: model is not available")
(error "line 1031 column 18: model is not available")
(error "line 1032 column 18: model is not available")
(error "line 1033 column 18: model is not available")
(error "line 1034 column 18: model is not available")
(error "line 1035 column 18: model is not available")
(error "line 1036 column 18: model is not available")
(error "line 1037 column 18: model is not available")
(error "line 1038 column 18: model is not available")
(error "line 1039 column 18: model is not available")
(error "line 1040 column 38: model is not available")
(error "line 1041 column 45: model is not available")
(error "line 1042 column 38: model is not available")
(error "line 1043 column 45: model is not available")
(error "line 1044 column 46: model is not available")
(error "line 1045 column 53: model is not available")
(error "line 1046 column 40: model is not available")
(error "line 1047 column 47: model is not available")
(error "line 1048 column 38: model is not available")
(error "line 1049 column 45: model is not available")
(error "line 1050 column 38: model is not available")
(error "line 1051 column 45: model is not available")
(error "line 1052 column 41: model is not available")
(error "line 1053 column 48: model is not available")
(error "line 1054 column 41: model is not available")
(error "line 1055 column 48: model is not available")
(error "line 1056 column 41: model is not available")
(error "line 1057 column 48: model is not available")
(error "line 1058 column 37: model is not available")
(error "line 1059 column 44: model is not available")
(error "line 1060 column 42: model is not available")
(error "line 1061 column 42: model is not available")
(error "line 1062 column 38: model is not available")
(error "line 1063 column 38: model is not available")
(error "line 1064 column 38: model is not available")
(error "line 1065 column 41: model is not available")
(error "line 1066 column 48: model is not available")
(error "line 1067 column 41: model is not available")
(error "line 1068 column 48: model is not available")
(error "line 1069 column 41: model is not available")
(error "line 1070 column 48: model is not available")
(error "line 1071 column 41: model is not available")
(error "line 1072 column 48: model is not available")
(error "line 1073 column 44: model is not available")
(error "line 1074 column 54: model is not available")
(error "line 1075 column 18: model is not available")
(error "line 1076 column 25: model is not available")
(error "line 1077 column 18: model is not available")
(error "line 1078 column 25: model is not available")
(error "line 1079 column 18: model is not available")
(error "line 1080 column 25: model is not available")
(error "line 1081 column 18: model is not available")
(error "line 1082 column 25: model is not available")
(error "line 1083 column 22: model is not available")
(error "line 1084 column 20: model is not available")
(error "line 1085 column 22: model is not available")
(error "line 1086 column 22: model is not available")
(error "line 1087 column 29: model is not available")
(error "line 1088 column 38: model is not available")
(error "line 1089 column 38: model is not available")
(error "line 1090 column 38: model is not available")
(error "line 1091 column 38: model is not available")
(error "line 1092 column 38: model is not available")
(error "line 1093 column 36: model is not available")
(error "line 1094 column 70: model is not available")
(error "line 1095 column 70: model is not available")
(error "line 1096 column 31: model is not available")
(error "line 1097 column 32: model is not available")
(error "line 1098 column 31: model is not available")
(error "line 1099 column 31: model is not available")
(error "line 1100 column 31: model is not available")
(error "line 1101 column 31: model is not available")
(error "line 1102 column 31: model is not available")
(error "line 1103 column 31: model is not available")
(error "line 1104 column 31: model is not available")
(error "line 1105 column 31: model is not available")
(error "line 1106 column 31: model is not available")
(error "line 1107 column 31: model is not available")
(error "line 1108 column 33: model is not available")
(error "line 1109 column 33: model is not available")
(error "line 1110 column 33: model is not available")
(error "line 1111 column 33: model is not available")
(error "line 1112 column 29: model is not available")
(error "line 1113 column 31: model is not available")
(error "line 1114 column 38: model is not available")
(error "line 1115 column 31: model is not available")
(error "line 1116 column 38: model is not available")
(error "line 1117 column 31: model is not available")
(error "line 1118 column 38: model is not available")
(error "line 1119 column 31: model is not available")
(error "line 1120 column 38: model is not available")
(error "line 1121 column 31: model is not available")
(error "line 1122 column 31: model is not available")
(error "line 1123 column 52: model is not available")
(error "line 1124 column 53: model is not available")
(error "line 1125 column 53: model is not available")
(error "line 1126 column 53: model is not available")
(error "line 1127 column 52: model is not available")
(error "line 1128 column 51: model is not available")
(error "line 1129 column 51: model is not available")
(error "line 1130 column 51: model is not available")
(error "line 1131 column 51: model is not available")
(error "line 1132 column 51: model is not available")
(error "line 1133 column 51: model is not available")
(error "line 1134 column 50: model is not available")
(error "line 1135 column 50: model is not available")
(error "line 1136 column 56: model is not available")
(error "line 1137 column 55: model is not available")
(error "line 1138 column 55: model is not available")
(error "line 1139 column 36: model is not available")
(error "line 1140 column 36: model is not available")
(error "line 1141 column 46: model is not available")
(error "line 1142 column 46: model is not available")
(error "line 1143 column 46: model is not available")
(error "line 1144 column 46: model is not available")
(error "line 1145 column 54: model is not available")
(error "line 1146 column 54: model is not available")
(error "line 1147 column 54: model is not available")
(error "line 1148 column 40: model is not available")
(error "line 1149 column 40: model is not available")
(error "line 1150 column 41: model is not available")
(error "line 1151 column 41: model is not available")
(error "line 1152 column 50: model is not available")
(error "line 1153 column 50: model is not available")
(error "line 1154 column 43: model is not available")
(error "line 1155 column 43: model is not available")
(error "line 1156 column 44: model is not available")
(error "line 1157 column 44: model is not available")
(error "line 1158 column 44: model is not available")
(error "line 1159 column 44: model is not available")
(error "line 1160 column 44: model is not available")
(error "line 1161 column 44: model is not available")
(error "line 1162 column 44: model is not available")
(error "line 1163 column 44: model is not available")
(error "line 1164 column 44: model is not available")
(error "line 1165 column 44: model is not available")
(error "line 1166 column 41: model is not available")
(error "line 1167 column 44: model is not available")
(error "line 1168 column 27: model is not available")
(error "line 1169 column 30: model is not available")
(error "line 1170 column 35: model is not available")
(error "line 1171 column 35: model is not available")
(error "line 1172 column 30: model is not available")
(error "line 1173 column 30: model is not available")
(error "line 1174 column 29: model is not available")
(error "line 1175 column 18: model is not available")
(error "line 1176 column 25: model is not available")
(error "line 1177 column 18: model is not available")
(error "line 1178 column 25: model is not available")
(error "line 1179 column 18: model is not available")
(error "line 1180 column 25: model is not available")
(error "line 1182 column 10: model is not available")
(:binary-propagations     45
 :conflicts               1
 :eliminated-applications 47
 :eliminated-vars         12
 :max-memory              3.55
 :memory                  2.94
 :mk-bool-var             472
 :mk-clause               17
 :num-allocs              547281
 :num-checks              1
 :propagations            49
 :rlimit-count            11404
 :time                    0.00
 :total-time              0.01)

real	0m0.013s
user	0m0.009s
sys	0m0.004s
State: RE Run_time: 0.015225887298583984